c CNF file corresponding to a (partial) station packing problem.
p cnf 5336 229
1 2 3 4 5 6 7 8 9 10 11 12 13 14 0
-1 -2 0
-1 -3 0
-1 -4 0
-1 -5 0
-1 -6 0
-1 -7 0
-1 -8 0
-1 -9 0
-1 -10 0
-1 -11 0
-1 -12 0
-1 -13 0
-1 -14 0
-2 -3 0
-2 -4 0
-2 -5 0
-2 -6 0
-2 -7 0
-2 -8 0
-2 -9 0
-2 -10 0
-2 -11 0
-2 -12 0
-2 -13 0
-2 -14 0
-3 -4 0
-3 -5 0
-3 -6 0
-3 -7 0
-3 -8 0
-3 -9 0
-3 -10 0
-3 -11 0
-3 -12 0
-3 -13 0
-3 -14 0
-4 -5 0
-4 -6 0
-4 -7 0
-4 -8 0
-4 -9 0
-4 -10 0
-4 -11 0
-4 -12 0
-4 -13 0
-4 -14 0
-5 -6 0
-5 -7 0
-5 -8 0
-5 -9 0
-5 -10 0
-5 -11 0
-5 -12 0
-5 -13 0
-5 -14 0
-6 -7 0
-6 -8 0
-6 -9 0
-6 -10 0
-6 -11 0
-6 -12 0
-6 -13 0
-6 -14 0
-7 -8 0
-7 -9 0
-7 -10 0
-7 -11 0
-7 -12 0
-7 -13 0
-7 -14 0
-8 -9 0
-8 -10 0
-8 -11 0
-8 -12 0
-8 -13 0
-8 -14 0
-9 -10 0
-9 -11 0
-9 -12 0
-9 -13 0
-9 -14 0
-10 -11 0
-10 -12 0
-10 -13 0
-10 -14 0
-11 -12 0
-11 -13 0
-11 -14 0
-12 -13 0
-12 -14 0
-13 -14 0
5320 5321 5322 5323 5324 5325 5326 5327 5328 5329 5330 5331 5332 5333 5334 5335 5336 0
-5320 -5321 0
-5320 -5322 0
-5320 -5323 0
-5320 -5324 0
-5320 -5325 0
-5320 -5326 0
-5320 -5327 0
-5320 -5328 0
-5320 -5329 0
-5320 -5330 0
-5320 -5331 0
-5320 -5332 0
-5320 -5333 0
-5320 -5334 0
-5320 -5335 0
-5320 -5336 0
-5321 -5322 0
-5321 -5323 0
-5321 -5324 0
-5321 -5325 0
-5321 -5326 0
-5321 -5327 0
-5321 -5328 0
-5321 -5329 0
-5321 -5330 0
-5321 -5331 0
-5321 -5332 0
-5321 -5333 0
-5321 -5334 0
-5321 -5335 0
-5321 -5336 0
-5322 -5323 0
-5322 -5324 0
-5322 -5325 0
-5322 -5326 0
-5322 -5327 0
-5322 -5328 0
-5322 -5329 0
-5322 -5330 0
-5322 -5331 0
-5322 -5332 0
-5322 -5333 0
-5322 -5334 0
-5322 -5335 0
-5322 -5336 0
-5323 -5324 0
-5323 -5325 0
-5323 -5326 0
-5323 -5327 0
-5323 -5328 0
-5323 -5329 0
-5323 -5330 0
-5323 -5331 0
-5323 -5332 0
-5323 -5333 0
-5323 -5334 0
-5323 -5335 0
-5323 -5336 0
-5324 -5325 0
-5324 -5326 0
-5324 -5327 0
-5324 -5328 0
-5324 -5329 0
-5324 -5330 0
-5324 -5331 0
-5324 -5332 0
-5324 -5333 0
-5324 -5334 0
-5324 -5335 0
-5324 -5336 0
-5325 -5326 0
-5325 -5327 0
-5325 -5328 0
-5325 -5329 0
-5325 -5330 0
-5325 -5331 0
-5325 -5332 0
-5325 -5333 0
-5325 -5334 0
-5325 -5335 0
-5325 -5336 0
-5326 -5327 0
-5326 -5328 0
-5326 -5329 0
-5326 -5330 0
-5326 -5331 0
-5326 -5332 0
-5326 -5333 0
-5326 -5334 0
-5326 -5335 0
-5326 -5336 0
-5327 -5328 0
-5327 -5329 0
-5327 -5330 0
-5327 -5331 0
-5327 -5332 0
-5327 -5333 0
-5327 -5334 0
-5327 -5335 0
-5327 -5336 0
-5328 -5329 0
-5328 -5330 0
-5328 -5331 0
-5328 -5332 0
-5328 -5333 0
-5328 -5334 0
-5328 -5335 0
-5328 -5336 0
-5329 -5330 0
-5329 -5331 0
-5329 -5332 0
-5329 -5333 0
-5329 -5334 0
-5329 -5335 0
-5329 -5336 0
-5330 -5331 0
-5330 -5332 0
-5330 -5333 0
-5330 -5334 0
-5330 -5335 0
-5330 -5336 0
-5331 -5332 0
-5331 -5333 0
-5331 -5334 0
-5331 -5335 0
-5331 -5336 0
-5332 -5333 0
-5332 -5334 0
-5332 -5335 0
-5332 -5336 0
-5333 -5334 0
-5333 -5335 0
-5333 -5336 0
-5334 -5335 0
-5334 -5336 0
-5335 -5336 0
